(declare-const |K:165:166:171:177:184| Int)
(declare-const |__VERIFIER_assert__cond___16':155:168:173:179:186| Int)
(declare-const |havoc:9:61:176:183| Int)
(declare-const havoc Int)
(declare-const |__VERIFIER_assert__cond___15':154:169:174:180:187| Int)
(declare-const __VERIFIER_assert__cond___15 Int)
(declare-const __VERIFIER_assert__cond___16 Int)
(declare-const main____CPAchecker_TMP_1 Int)
(declare-const |havoc:1| Int)
(declare-const |havoc:2| Int)
(declare-const |main____CPAchecker_TMP_1':153:167:172:178:185| Int)
(declare-const |main__cp':152:170:175:181:188| Int)
(declare-const |havoc:12:62:151:182:189| Int)
(assert (and (<= (+ havoc -1000000) 0) (<= (+ (- havoc) -1000000) 0)
               (<= (+ |havoc:1| -1000000) 0)
               (<= (+ (- |havoc:1|) -1000000) 0)
               (<= (+ |havoc:2| -1000000) 0)
               (<= (+ (- |havoc:2|) -1000000) 0) (< (- havoc) 0)
               (< (- |havoc:1|) 0) (<= (- |havoc:2|) 0) (not (= |havoc:2| 0))
               (<= (+ |havoc:2| (- havoc) 1) 0)
               (not (= (ite (< (+ |havoc:2| (- havoc) -1) 0) 1 0) 0))
               (not (= (ite (<= (+ (- |havoc:2|) 1) 0) 1 0) 0))
               (not (= |havoc:9:61:176:183| 0))
               (not (= (ite (< (+ |havoc:2| (- havoc)) 0) 1 0) 0))
               (not (= (ite (<= (- |havoc:2|) 0) 1 0) 0))
               (or (not (and (<= (- |K:165:166:171:177:184|) 0)
                               (<= |K:165:166:171:177:184| 0)))
                     (= (+ (- main____CPAchecker_TMP_1)
                             |main____CPAchecker_TMP_1':153:167:172:178:185|) 0))
               (or (not (<= (+ (- |K:165:166:171:177:184|) 1) 0))
                     (= |main____CPAchecker_TMP_1':153:167:172:178:185| 0))
               (or (not (and (<= (- |K:165:166:171:177:184|) 0)
                               (<= |K:165:166:171:177:184| 0)))
                     (= (+ (- __VERIFIER_assert__cond___16)
                             |__VERIFIER_assert__cond___16':155:168:173:179:186|) 0))
               (or (not (<= (+ (- |K:165:166:171:177:184|) 1) 0))
                     (= (+ |__VERIFIER_assert__cond___16':155:168:173:179:186|
                             -1) 0))
               (or (not (and (<= (- |K:165:166:171:177:184|) 0)
                               (<= |K:165:166:171:177:184| 0)))
                     (= (+ (- __VERIFIER_assert__cond___15)
                             |__VERIFIER_assert__cond___15':154:169:174:180:187|) 0))
               (or (not (<= (+ (- |K:165:166:171:177:184|) 1) 0))
                     (= (+ |__VERIFIER_assert__cond___15':154:169:174:180:187|
                             -1) 0))
               (or (not (<= (- |K:165:166:171:177:184|) 0))
                     (= (+ |main__cp':152:170:175:181:188|
                             (- |K:165:166:171:177:184|) (- |havoc:2|)) 0))
               (or (and (= |K:165:166:171:177:184| 0)
                          (= (+ __VERIFIER_assert__cond___16
                                  (- |__VERIFIER_assert__cond___16':155:168:173:179:186|)) 0)
                          (= (+ __VERIFIER_assert__cond___15
                                  (- |__VERIFIER_assert__cond___15':154:169:174:180:187|)) 0)
                          (= (+ main____CPAchecker_TMP_1
                                  (- |main____CPAchecker_TMP_1':153:167:172:178:185|)) 0)
                          (= (+ (- |main__cp':152:170:175:181:188|) |havoc:2|) 0))
                     (and (<= (+ (- |K:165:166:171:177:184|) 1) 0)
                            (<= (+ |havoc:2| (- havoc) 2) 0)
                            (<= (+ (- |havoc:2|) 1) 0)
                            (= (+ |__VERIFIER_assert__cond___16':155:168:173:179:186|
                                    -1) 0)
                            (= (+ |__VERIFIER_assert__cond___15':154:169:174:180:187|
                                    -1) 0)
                            (= |main____CPAchecker_TMP_1':153:167:172:178:185| 0)
                            (<= (+ |main__cp':152:170:175:181:188| (- 
                                     havoc) 1) 0)
                            (<= (+ (- |main__cp':152:170:175:181:188|) 2) 0)))
               (<= (- |K:165:166:171:177:184|) 0) (< (- havoc) 0)
               (< (- |main__cp':152:170:175:181:188|) 0)
               (or (< (+ |main__cp':152:170:175:181:188| (- havoc) 1) 0)
                     (< (+ (- |main__cp':152:170:175:181:188|) havoc -1) 0))
               (= |havoc:12:62:151:182:189| 0)
               (not (= (ite (< (+ |main__cp':152:170:175:181:188| (- havoc)) 0)
                            1 0) 0))
               (= (ite (<= (- |main__cp':152:170:175:181:188|) 0) 1 0) 0)))
(check-sat)
